5909.0 11158.34
5095.0 8749.66
5095.0 7947.96
3513.0 6150.22
3513.0 4821.96
2983.0 4106.36
2983.0 4418.18
2983.0 3777.06
2983.0 3555.78
2983.0 3060.88
2983.0 2997.48
2983.0 2983.0
2983.0 2983.0
2983.0 2983.0
2983.0 2983.0
2983.0 2998.1
2983.0 3095.84
2381.0 2970.96
2983.0 2962.24
2983.0 2948.4
2983.0 2962.24
2983.0 2976.08
2983.0 2983.0
2983.0 2983.0
2983.0 2983.0
2983.0 2983.0
2983.0 2983.0
2983.0 2983.0
2983.0 2983.0
2983.0 2983.0
2983.0 2983.0
2983.0 2983.0
2983.0 2983.0
2983.0 2983.0
2983.0 2983.0
2983.0 2983.0
2983.0 2983.0
2983.0 3022.58
2983.0 3079.0
2983.0 2983.0
2983.0 2983.0
2983.0 2983.0
2983.0 2983.0
2983.0 3024.56
2983.0 2983.0
2983.0 2983.0
2983.0 3004.78
2983.0 3019.16
2983.0 2983.0
2983.0 2983.0
